342 5
10 10 10 10 10 

0 0 0 0 0 0 5 2 14 26 38 50 
0 0 0 0 0 0 2 3 6 
9 4 0 0 0 0 3 12 4 133 
6 9 0 0 0 0 1 5 
8 4 0 0 0 0 2 11 7 
4 9 0 0 0 0 2 11 7 
2 5 0 0 0 0 1 8 
8 7 0 0 0 0 1 9 
9 10 0 0 0 0 1 10 
9 10 0 0 0 0 1 13 
6 9 0 0 0 0 1 13 
7 8 0 0 0 0 1 13 
0 0 0 0 0 0 1 62 
0 0 0 0 0 0 2 15 23 
7 0 2 0 0 0 2 20 16 
9 0 4 0 0 0 1 17 
9 0 8 0 0 0 2 22 18 
5 0 10 0 0 0 1 19 
4 0 9 0 0 0 1 21 
3 0 10 0 0 0 1 21 
3 0 10 0 0 0 2 24 322 
2 0 6 0 0 0 1 24 
8 0 6 0 0 0 1 24 
4 0 10 0 0 0 1 25 
0 0 0 0 0 0 1 62 
0 0 0 0 0 0 2 27 36 
1 3 0 0 0 0 1 28 
6 4 0 0 0 0 1 29 
3 10 0 0 0 0 2 35 30 
4 9 0 0 0 0 2 31 59 
3 9 0 0 0 0 2 34 32 
10 5 0 0 0 0 1 33 
5 10 0 0 0 0 1 37 
7 8 0 0 0 0 1 37 
1 8 0 0 0 0 1 37 
4 9 0 0 0 0 1 37 
0 0 0 0 0 0 1 62 
0 0 0 0 0 0 1 39 
9 0 0 0 0 3 2 42 40 
10 0 0 0 0 8 1 41 
3 0 0 0 0 3 2 46 43 
1 0 0 0 0 10 2 47 43 
9 0 0 0 0 7 1 44 
4 0 0 0 0 8 2 45 286 
5 0 0 0 0 10 1 48 
10 0 0 0 0 10 1 48 
4 0 0 0 0 9 1 48 
2 0 0 0 0 7 1 49 
0 0 0 0 0 0 1 62 
0 0 0 0 0 0 1 51 
10 0 0 0 4 0 1 52 
3 0 0 0 7 0 2 56 53 
10 0 0 0 10 0 3 60 58 54 
1 0 0 0 3 0 2 55 279 
9 0 0 0 7 0 1 57 
5 0 0 0 4 0 1 57 
9 0 0 0 10 0 1 59 
7 0 0 0 10 0 1 59 
5 0 0 0 10 0 1 61 
9 0 0 0 10 0 1 61 
0 0 0 0 0 0 1 62 
0 0 0 0 0 0 5 63 95 127 159 171 
0 0 0 0 0 0 3 64 92 93 
10 0 5 2 3 0 1 65 
5 0 4 10 10 0 1 66 
8 0 10 7 5 0 3 91 90 67 
4 0 9 6 10 0 1 68 
3 0 10 9 7 0 2 89 69 
10 0 8 8 6 0 3 88 87 70 
9 0 10 10 6 0 1 71 
10 0 7 5 9 0 1 72 
9 0 8 9 8 0 1 73 
6 0 4 10 6 0 1 74 
10 0 10 6 8 0 1 75 
10 0 8 9 5 0 2 86 76 
8 0 5 7 7 0 1 77 
10 0 9 10 7 0 1 78 
1 0 5 8 8 0 1 79 
2 0 9 6 10 0 1 80 
9 0 8 7 6 0 1 81 
10 0 10 10 10 0 1 82 
1 0 8 8 10 0 1 83 
2 0 5 4 6 0 1 84 
8 0 9 6 10 0 1 85 
8 0 9 8 7 0 1 94 
8 0 7 10 6 0 1 94 
10 0 5 10 5 0 1 94 
9 0 10 3 9 0 1 94 
6 0 4 6 10 0 2 94 115 
6 0 4 5 6 0 1 94 
1 0 8 10 6 0 1 94 
8 0 7 10 10 0 1 94 
5 0 10 6 9 0 1 94 
0 0 0 0 0 0 1 317 
0 0 0 0 0 0 3 96 125 210 
9 3 0 3 0 1 1 97 
2 3 0 8 0 6 1 98 
5 9 0 8 0 6 1 99 
6 8 0 7 0 8 1 100 
9 10 0 9 0 10 2 124 101 
6 4 0 6 0 6 1 102 
3 9 0 10 0 8 1 103 
6 5 0 7 0 9 4 115 108 106 104 
4 7 0 4 0 7 1 105 
8 10 0 5 0 9 3 112 110 107 
6 8 0 10 0 8 2 112 111 
5 6 0 4 0 5 1 109 
10 8 0 9 0 8 1 109 
10 6 0 10 0 10 1 111 
4 10 0 5 0 9 1 111 
5 8 0 10 0 6 1 113 
8 7 0 10 0 7 1 113 
3 8 0 6 0 7 1 114 
2 9 0 3 0 6 2 123 116 
6 6 0 9 0 10 2 123 116 
3 6 0 9 0 7 1 117 
10 7 0 9 0 6 1 118 
9 10 0 8 0 7 1 119 
6 9 0 7 0 9 1 120 
1 10 0 10 0 10 1 121 
4 8 0 6 0 4 1 122 
2 10 0 10 0 10 1 126 
4 6 0 8 0 6 1 126 
6 5 0 5 0 10 1 126 
5 10 0 10 0 10 1 126 
0 0 0 0 0 0 1 317 
0 0 0 0 0 0 1 128 
3 0 2 4 3 0 1 129 
7 0 6 4 6 0 2 131 130 
6 0 9 7 6 0 2 133 132 
6 0 8 3 6 0 1 132 
3 0 10 6 7 0 1 134 
6 0 8 10 10 0 1 134 
10 0 4 10 8 0 2 137 135 
2 0 6 10 6 0 2 136 257 
10 0 10 5 10 0 1 138 
7 0 5 8 6 0 1 138 
6 0 6 10 7 0 3 142 140 139 
6 0 9 7 10 0 1 141 
8 0 10 8 6 0 1 141 
4 0 3 8 9 0 2 144 143 
1 0 5 9 10 0 1 143 
7 0 10 6 10 0 1 145 
4 0 9 10 9 0 1 145 
3 0 8 10 9 0 2 148 146 
6 0 2 3 1 0 1 147 
8 0 10 8 10 0 2 150 149 
8 0 10 8 6 0 2 150 149 
5 0 5 9 5 0 1 151 
5 0 9 8 9 0 1 151 
6 0 6 7 7 0 1 152 
10 0 7 8 10 0 1 153 
2 0 9 8 8 0 1 154 
4 0 9 9 9 0 1 155 
4 0 10 5 6 0 1 156 
4 0 10 10 9 0 1 157 
3 0 10 7 7 0 1 158 
0 0 0 0 0 0 1 317 
0 0 0 0 0 0 1 160 
10 0 0 0 1 0 1 161 
7 0 0 0 10 0 2 165 162 
8 0 0 0 8 0 1 163 
1 0 0 0 10 0 2 166 164 
1 0 0 0 8 0 2 168 167 
7 0 0 0 9 0 1 166 
6 0 0 0 6 0 1 168 
7 0 0 0 5 0 1 169 
6 0 0 0 8 0 2 170 340 
9 0 0 0 10 0 1 170 
0 0 0 0 0 0 4 203 215 237 259 
0 0 0 0 0 0 2 172 201 
2 0 6 0 3 3 1 173 
3 0 5 0 10 5 1 174 
4 0 10 0 7 10 1 175 
7 0 10 0 10 10 1 176 
8 0 7 0 8 7 2 200 177 
4 0 7 0 9 10 1 178 
3 0 3 0 3 6 1 179 
3 0 7 0 5 7 5 199 198 197 185 180 
4 0 9 0 10 7 2 181 291 
4 0 7 0 10 5 2 188 182 
3 0 6 0 8 10 1 183 
5 0 10 0 6 10 1 184 
7 0 10 0 7 4 2 196 186 
3 0 10 0 10 10 2 196 187 
9 0 8 0 10 9 1 187 
9 0 4 0 8 6 1 189 
10 0 10 0 6 10 1 189 
7 0 7 0 9 7 1 190 
1 0 10 0 6 9 1 191 
8 0 4 0 9 9 1 192 
4 0 3 0 8 8 1 193 
9 0 8 0 6 6 1 194 
8 0 10 0 10 10 1 195 
9 0 8 0 7 2 1 202 
7 0 10 0 8 6 1 202 
2 0 9 0 6 10 1 202 
3 0 9 0 6 5 1 202 
5 0 7 0 7 8 1 202 
1 0 4 0 5 9 1 202 
1 0 7 0 8 7 1 202 
0 0 0 0 0 0 1 317 
0 0 0 0 0 0 2 204 208 
10 0 4 0 0 0 2 211 205 
9 0 6 0 0 0 1 206 
6 0 6 0 0 0 1 207 
9 0 9 0 0 0 1 209 
6 0 10 0 0 0 1 209 
2 0 10 0 0 0 3 213 210 226 
8 0 10 0 0 0 1 212 
10 0 7 0 0 0 1 212 
3 0 3 0 0 0 1 214 
5 0 10 0 0 0 1 214 
0 0 0 0 0 0 3 281 293 305 
0 0 0 0 0 0 1 216 
7 0 0 0 4 2 2 220 217 
7 0 0 0 3 4 2 222 218 
5 0 0 0 8 10 1 219 
8 0 0 0 10 6 1 221 
5 0 0 0 9 6 1 221 
2 0 0 0 10 8 2 226 223 
7 0 0 0 8 4 1 223 
3 0 0 0 9 10 2 229 224 
6 0 0 0 9 6 1 225 
6 0 0 0 9 9 2 227 312 
2 0 0 0 4 4 1 227 
7 0 0 0 10 10 2 233 228 
2 0 0 0 7 10 1 230 
10 0 0 0 7 10 1 230 
9 0 0 0 9 6 1 231 
3 0 0 0 6 9 1 232 
10 0 0 0 5 10 1 234 
4 0 0 0 9 10 1 234 
10 0 0 0 6 7 1 235 
3 0 0 0 8 9 1 236 
0 0 0 0 0 0 1 317 
0 0 0 0 0 0 1 238 
1 0 0 0 2 3 2 242 239 
8 0 0 0 8 4 1 240 
7 0 0 0 6 8 2 245 241 
10 0 0 0 10 4 1 243 
2 0 0 0 7 9 1 243 
9 0 0 0 9 8 2 250 244 
2 0 0 0 8 6 2 248 246 
6 0 0 0 9 8 2 250 247 
4 0 0 0 7 8 1 247 
4 0 0 0 9 10 2 251 249 
5 0 0 0 8 10 2 252 251 
7 0 0 0 9 10 1 252 
2 0 0 0 10 5 1 251 
1 0 0 0 3 8 1 253 
3 0 0 0 6 6 1 253 
2 0 0 0 10 10 1 254 
4 0 0 0 10 10 1 255 
9 0 0 0 6 7 1 256 
9 0 0 0 8 10 2 257 287 
9 0 0 0 5 6 1 258 
0 0 0 0 0 0 1 317 
0 0 0 0 0 0 2 260 271 
2 0 1 4 0 0 1 261 
8 0 9 7 0 0 1 262 
7 0 7 8 0 0 3 279 267 263 
10 0 5 7 0 0 1 264 
6 0 10 9 0 0 1 265 
2 0 6 3 0 0 1 266 
10 0 8 10 0 0 2 278 268 
3 0 9 8 0 0 2 278 269 
4 0 7 4 0 0 1 269 
3 0 10 10 0 0 1 270 
3 0 7 7 0 0 2 277 272 
3 0 7 10 0 0 2 277 273 
8 0 9 8 0 0 1 273 
4 0 7 8 0 0 1 274 
1 0 10 8 0 0 1 275 
5 0 10 5 0 0 1 276 
5 0 9 8 0 0 1 280 
1 0 6 6 0 0 1 280 
6 0 5 10 0 0 1 280 
7 0 8 10 0 0 1 280 
0 0 0 0 0 0 1 317 
0 0 0 0 0 0 2 282 287 
1 0 0 3 0 0 2 286 283 
4 0 0 9 0 0 1 284 
3 0 0 5 0 0 1 285 
7 0 0 7 0 0 1 288 
7 0 0 8 0 0 1 288 
2 0 0 9 0 0 1 289 
2 0 0 10 0 0 1 290 
6 0 0 10 0 0 1 290 
1 0 0 4 0 0 1 291 
8 0 0 10 0 0 1 292 
0 0 0 0 0 0 1 317 
0 0 0 0 0 0 2 294 295 
6 3 0 0 0 0 2 302 296 
9 6 0 0 0 0 3 303 302 298 
7 4 0 0 0 0 1 297 
3 8 0 0 0 0 1 298 
3 10 0 0 0 0 1 299 
5 10 0 0 0 0 1 300 
10 10 0 0 0 0 1 301 
7 9 0 0 0 0 1 304 
10 9 0 0 0 0 1 304 
5 6 0 0 0 0 1 304 
0 0 0 0 0 0 1 317 
0 0 0 0 0 0 2 306 307 
8 0 0 0 0 7 1 308 
10 0 0 0 0 6 3 315 311 310 
4 0 0 0 0 10 1 309 
3 0 0 0 0 8 2 315 310 
9 0 0 0 0 5 1 312 
2 0 0 0 0 6 1 312 
2 0 0 0 0 5 1 313 
5 0 0 0 0 9 1 314 
9 0 0 0 0 10 1 316 
7 0 0 0 0 9 1 316 
0 0 0 0 0 0 1 317 
0 0 0 0 0 0 2 318 330 
0 0 0 0 0 0 3 319 320 325 
1 4 0 0 0 0 1 321 
1 5 0 0 0 0 1 321 
4 10 0 0 0 0 2 328 322 
7 7 0 0 0 0 1 323 
10 6 0 0 0 0 1 324 
8 10 0 0 0 0 1 326 
1 5 0 0 0 0 1 326 
8 10 0 0 0 0 1 327 
8 8 0 0 0 0 1 329 
5 10 0 0 0 0 1 329 
0 0 0 0 0 0 1 342 
0 0 0 0 0 0 4 331 334 337 340 
4 0 0 0 2 0 1 332 
5 0 0 0 10 0 1 333 
10 0 0 0 9 0 1 335 
1 0 0 0 5 0 1 335 
8 0 0 0 7 0 1 336 
2 0 0 0 8 0 1 338 
1 0 0 0 8 0 1 338 
7 0 0 0 6 0 1 339 
6 0 0 0 10 0 1 341 
9 0 0 0 10 0 1 341 
0 0 0 0 0 0 1 342 
0 0 0 0 0 0 0 
